c Random generated cnf formula, satisfiable: false
p cnf 10 50
8 5 -9 0
7 -3 -4 0
5 6 4 0
10 1 -2 0
7 -4 10 0
-6 -2 -3 0
-8 -1 3 0
8 4 -5 0
1 -10 -7 0
4 -8 9 0
4 -10 8 0
-1 -7 -6 0
4 -9 -2 0
4 -1 6 0
-10 9 3 0
4 2 -9 0
-3 -2 9 0
-4 -9 2 0
3 -5 2 0
-3 2 -10 0
5 3 -8 0
4 6 -5 0
-1 9 -6 0
1 5 -2 0
-7 -5 -6 0
-6 9 -2 0
5 -8 -7 0
6 2 -1 0
-9 -3 5 0
2 -3 9 0
1 -2 -4 0
7 -5 -3 0
5 9 -10 0
10 -8 2 0
8 5 9 0
-10 8 -2 0
10 9 -6 0
4 -6 2 0
-5 1 4 0
3 -6 -4 0
7 -1 3 0
3 -9 -7 0
-2 -7 -4 0
10 7 9 0
3 -9 -8 0
7 -6 2 0
3 2 6 0
-5 9 3 0
-10 -8 -3 0
-4 7 -3 0
